10J3M/DAT/10J3MNTL-12.dat
10 3
29.3394 29.3394
29.2138 29.2138
21.7297 21.7297
20.4471 20.4471
18.98 18.98
33.5832 33.5832
28.6006 28.6006
24.0499 24.0499
19.6846 19.6846
28.5006 28.5006
63.5322