10J3M/SOL/10J3MNTL-12.sol
solution status: optimal solution found
objective value:                               62.534
x#2#3                                               1 	(obj:0)
x#3#3                                               1 	(obj:0)
x#4#1                                               1 	(obj:0)
x#5#2                                               1 	(obj:0)
x#6#2                                               1 	(obj:0)
x#7#1                               0.640324218875955 	(obj:0)
x#7#2                              0.0138772450262793 	(obj:0)
x#8#1                                               1 	(obj:0)
x#9#2                                               1 	(obj:0)
x#10#3                              0.151515438709555 	(obj:0)
z                                              62.534 	(obj:1)
